* #variable= 40 #constraint= 3 
+1 x1 -1 x21 +2 x2 -2 x22 +4 x3 -4 x23 +8 x4 -8 x24 +16 x5 -16 x25 +32 x6 -32 x26 +64 x7 -64 x27 +128 x8 -128 x28 +256 x9 -256 x29 +512 x10 -512 x30 +1024 x11 -1024 x31 +2048 x12 -2048 x32 +4096 x13 -4096 x33 +8192 x14 -8192 x34 +16384 x15 -16384 x35 +32768 x16 -32768 x36 +65536 x17 -65536 x37 +131072 x18 -131072 x38 +262144 x19 -262144 x39 +524288 x20 -524288 x40 = 0 ;
-1 x1 -1 x21 >= -1; 
+1 x1 +1 x21 >= 1; 
